n_res = 4;
rc = [ 22, 34, 24, 27 ];
n_tasks = 30;
d = [ 9, 10, 9, 10, 7, 1, 4, 4, 4, 8, 9, 3, 2, 1, 3, 7, 7, 4, 6, 9, 9, 8, 8, 6, 10, 7, 6, 4, 1, 9 ];
rr = [| 7, 0, 10, 3, 5, 3, 4, 1, 0, 10, 1, 8, 8, 1, 10, 3, 0, 10, 0, 2, 0, 8, 9, 2, 7, 2, 10, 5, 8, 0
      | 1, 0, 4, 0, 10, 2, 7, 9, 2, 0, 8, 5, 2, 0, 8, 3, 3, 1, 5, 4, 0, 10, 0, 7, 10, 0, 6, 6, 1, 3
      | 6, 6, 1, 3, 8, 5, 0, 0, 6, 0, 9, 6, 4, 2, 8, 7, 0, 0, 1, 0, 8, 0, 1, 5, 6, 0, 9, 7, 2, 7
      | 8, 6, 7, 8, 0, 3, 10, 8, 1, 2, 5, 0, 7, 2, 0, 6, 1, 9, 0, 7, 8, 6, 4, 10, 0, 0, 9, 0, 4, 0 |];
suc = [ { 2 }, 
        { 1 }, 
        { 4 }, 
        { 3 }, 
        { 6 }, 
        { 5 }, 
        { 8 }, 
        { 7 }, 
        { 10 }, 
        { 9 }, 
        { 12 }, 
        { 11 }, 
        { 14 }, 
        { 13 }, 
        { 16 }, 
        { 15 }, 
        { 18 }, 
        { 17 }, 
        { 20 }, 
        { 19 }, 
        { 22 }, 
        { 21 }, 
        { 24 }, 
        { 23 }, 
        { 26 }, 
        { 25 }, 
        { 28 }, 
        { 27 }, 
        { 30 }, 
        { 29 }]; 
